(set-option :produce-models true); benchmark generated from python API
(set-info :status unknown)
(declare-fun l_1_0_8 () Real)
(declare-fun l_1_0_3 () Real)
(declare-fun l_1_0_2 () Real)
(declare-fun l_1_0_11 () Real)
(declare-fun l_1_0_10 () Real)
(declare-fun l_1_0_1 () Real)
(declare-fun _a_0_ () Real)
(declare-fun l_1_0_9 () Real)
(declare-fun l_1_0_7 () Real)
(declare-fun l_1_0_6 () Real)
(declare-fun l_1_0_5 () Real)
(declare-fun l_1_0_4 () Real)
(declare-fun _a_1_ () Real)
(declare-fun _a_2_ () Real)
(declare-fun l_1_1_9 () Real)
(declare-fun l_1_1_8 () Real)
(declare-fun l_1_1_3 () Real)
(declare-fun l_1_1_2 () Real)
(declare-fun l_1_1_17 () Real)
(declare-fun l_1_1_16 () Real)
(declare-fun l_1_1_14 () Real)
(declare-fun l_1_1_12 () Real)
(declare-fun l_1_1_11 () Real)
(declare-fun l_1_1_10 () Real)
(declare-fun l_1_1_1 () Real)
(declare-fun l_1_1_7 () Real)
(declare-fun l_1_1_6 () Real)
(declare-fun l_1_1_5 () Real)
(declare-fun l_1_1_4 () Real)
(declare-fun l_1_1_13 () Real)
(declare-fun l_1_1_15 () Real)
(declare-fun l_1_2_9 () Real)
(declare-fun l_1_2_8 () Real)
(declare-fun l_1_2_7 () Real)
(declare-fun l_1_2_5 () Real)
(declare-fun l_1_2_4 () Real)
(declare-fun l_1_2_2 () Real)
(declare-fun l_1_2_17 () Real)
(declare-fun l_1_2_16 () Real)
(declare-fun l_1_2_14 () Real)
(declare-fun l_1_2_10 () Real)
(declare-fun l_1_2_1 () Real)
(declare-fun l_1_2_6 () Real)
(declare-fun l_1_2_3 () Real)
(declare-fun l_1_2_13 () Real)
(declare-fun l_1_2_12 () Real)
(declare-fun l_1_2_11 () Real)
(declare-fun l_1_2_15 () Real)
(assert
 (let ((?x523 (* l_1_0_11 l_1_0_11)))
 (let ((?x522 (- (- (- (- _a_0_ l_1_0_1) (* l_1_0_10 l_1_0_10)) ?x523) l_1_0_2)))
 (= (- (- ?x522 l_1_0_3) l_1_0_8) 0.0))))
(assert
 (let ((?x275 (* l_1_0_9 l_1_0_9)))
 (let ((?x452 (+ (+ (- (+ _a_1_ l_1_0_4) (* 1.0 l_1_0_5)) l_1_0_6) l_1_0_7)))
 (= (- ?x452 ?x275) 0.0))))
(assert
 (let ((?x424 (- (- _a_2_ (* (* 2.0 l_1_0_10) l_1_0_9)) (* 1.0 l_1_0_4))))
 (= (- (- ?x424 (* 1.0 l_1_0_6)) (* 1.0 l_1_0_7)) 0.0)))
(assert
 (= (* 2.0 l_1_0_5) 0.0))
(assert
 (= (- l_1_0_5) 0.0))
(assert
 (>= l_1_0_1 0.0))
(assert
 (>= l_1_0_2 0.0))
(assert
 (>= l_1_0_3 0.0))
(assert
 (>= l_1_0_4 0.0))
(assert
 (>= l_1_0_5 0.0))
(assert
 (>= l_1_0_6 0.0))
(assert
 (>= l_1_0_7 0.0))
(assert
 (>= l_1_0_8 0.0))
(assert
 (>= l_1_0_9 0.0))
(assert
 (>= l_1_0_11 0.0))
(assert
 (let ((?x284 (* (/ 51.0 100.0) l_1_1_2)))
 (let ((?x283 (* l_1_1_17 l_1_1_17)))
 (let ((?x18 (* l_1_1_16 l_1_1_16)))
 (let ((?x279 (* (/ 51.0 100.0) l_1_1_12)))
 (let ((?x277 (* (/ 51.0 100.0) l_1_1_11)))
 (let ((?x276 (* (/ 2601.0 10000.0) l_1_1_10)))
 (let ((?x20 (* _a_0_ l_1_1_5)))
 (let ((?x302 (+ (- (- (* (- _a_0_) l_1_1_13) (* _a_0_ l_1_1_4)) ?x20) (* (* (/ 51.0 100.0) _a_0_) l_1_1_6))))
 (let ((?x278 (+ (- (- (+ ?x302 (* (* (/ 51.0 100.0) _a_0_) l_1_1_7)) l_1_1_1) ?x276) ?x277)))
 (let ((?x264 (- (+ (- (- (- (+ ?x278 ?x279) l_1_1_14) ?x18) ?x283) ?x284) (* (* l_1_1_3 _a_0_) _a_0_))))
 (= (+ (- (- ?x264 l_1_1_8) l_1_1_9) (/ 3.0 2.0)) 0.0))))))))))))
(assert
 (let ((?x65 (* l_1_1_15 l_1_1_15)))
 (let ((?x113 (* (/ 47.0 50.0) l_1_1_10)))
 (let ((?x119 (* _a_1_ l_1_1_5)))
 (let ((?x117 (- (- (- (* (- _a_1_) l_1_1_13) (* _a_1_ l_1_1_4)) ?x119) ?x113)))
 (let ((?x90 (- (- (- (- (- ?x117 l_1_1_11) l_1_1_12) ?x65) l_1_1_2) (* l_1_1_3 (+ (* (* 2.0 _a_0_) _a_1_) (* _a_2_ _a_2_))))))
 (let ((?x96 (- ?x90 (* l_1_1_6 (- (- _a_0_ (* (/ 51.0 100.0) _a_1_)) (* (/ 7.0 5.0) _a_2_))))))
 (let ((?x67 (- ?x96 (* l_1_1_7 (- (- _a_0_ (* (/ 51.0 100.0) _a_1_)) (* (/ 7.0 5.0) _a_2_))))))
 (= (- ?x67 1.0) 0.0)))))))))
(assert
 (let ((?x514 (* (/ 7.0 5.0) l_1_1_2)))
 (let ((?x432 (* (/ 7.0 5.0) l_1_1_12)))
 (let ((?x191 (* (/ 7.0 5.0) l_1_1_11)))
 (let ((?x190 (* (/ 357.0 250.0) l_1_1_10)))
 (let ((?x99 (* _a_2_ l_1_1_5)))
 (let ((?x476 (* _a_2_ l_1_1_4)))
 (let ((?x250 (* _a_2_ l_1_1_13)))
 (let ((?x101 (- (- (- (* (* (* (- 2.0) _a_0_) _a_2_) l_1_1_3) ?x250) ?x476) ?x99)))
 (let ((?x510 (- (+ (+ (- ?x101 ?x190) ?x191) ?x432) (* (* 2.0 l_1_1_15) l_1_1_16))))
 (let ((?x295 (- (+ ?x510 ?x514) (* l_1_1_6 (- (* (- (/ 7.0 5.0)) _a_0_) (* (/ 51.0 100.0) _a_2_))))))
 (let ((?x83 (+ (- ?x295 (* l_1_1_7 (- (* (- (/ 7.0 5.0)) _a_0_) (* (/ 51.0 100.0) _a_2_)))) (/ 1.0 2.0))))
 (= ?x83 0.0)))))))))))))
(assert
 (let ((?x456 (- (- (- (* (- _a_1_) l_1_1_6) (* _a_1_ l_1_1_7)) l_1_1_10) (* (* l_1_1_3 _a_1_) _a_1_))))
 (= ?x456 0.0)))
(assert
 (let ((?x155 (* (/ 14.0 5.0) l_1_1_10)))
 (let ((?x62 (- (+ (* (* (* (- 2.0) _a_1_) _a_2_) l_1_1_3) ?x155) (* l_1_1_6 (+ (* (- (/ 7.0 5.0)) _a_1_) _a_2_)))))
 (= (- ?x62 (* l_1_1_7 (+ (* (- (/ 7.0 5.0)) _a_1_) _a_2_))) 0.0))))
(assert
 (>= l_1_1_1 0.0))
(assert
 (>= l_1_1_2 0.0))
(assert
 (>= l_1_1_3 0.0))
(assert
 (>= l_1_1_4 0.0))
(assert
 (>= l_1_1_5 0.0))
(assert
 (>= l_1_1_6 0.0))
(assert
 (>= l_1_1_7 0.0))
(assert
 (>= l_1_1_8 0.0))
(assert
 (>= l_1_1_9 0.0))
(assert
 (>= l_1_1_10 0.0))
(assert
 (>= l_1_1_11 0.0))
(assert
 (>= l_1_1_12 0.0))
(assert
 (>= l_1_1_13 0.0))
(assert
 (>= l_1_1_14 0.0))
(assert
 (>= l_1_1_15 0.0))
(assert
 (>= l_1_1_17 0.0))
(assert
 (let ((?x588 (* (/ 51.0 100.0) l_1_2_7)))
 (let ((?x585 (* (/ 51.0 100.0) l_1_2_4)))
 (let ((?x583 (* (/ 51.0 100.0) l_1_2_2)))
 (let ((?x581 (* l_1_2_17 l_1_2_17)))
 (let ((?x579 (* l_1_2_16 l_1_2_16)))
 (let ((?x576 (* (/ 2601.0 10000.0) l_1_2_10)))
 (let ((?x570 (* _a_0_ l_1_2_6)))
 (let ((?x566 (* _a_0_ l_1_2_13)))
 (let ((?x569 (- (- (- (* (* (- (/ 51.0 100.0)) _a_0_) l_1_2_11) (* _a_0_ l_1_2_12)) ?x566) (* (* (/ 51.0 100.0) _a_0_) l_1_2_3))))
 (let ((?x577 (- (- (+ (- ?x569 ?x570) _a_0_) (* (* l_1_2_1 _a_0_) _a_0_)) ?x576)))
 (let ((?x587 (- (- (- (- (- (- ?x577 l_1_2_14) ?x579) ?x581) ?x583) ?x585) l_1_2_5)))
 (= (- (- (- ?x587 ?x588) l_1_2_8) l_1_2_9) 0.0)))))))))))))
(assert
 (let ((?x12 (* (/ 7.0 5.0) _a_2_)))
 (let ((?x666 (+ (+ (- _a_0_) (* (/ 51.0 100.0) _a_1_)) ?x12)))
 (let ((?x669 (* l_1_2_15 l_1_2_15)))
 (let ((?x663 (* (/ 47.0 50.0) l_1_2_10)))
 (let ((?x659 (* (/ 8.0 5.0) _a_2_)))
 (let ((?x656 (* (/ 64.0 25.0) _a_1_)))
 (let ((?x653 (* _a_1_ l_1_2_6)))
 (let ((?x657 (+ (- (- (* (- _a_1_) l_1_2_12) (* _a_1_ l_1_2_13)) ?x653) ?x656)))
 (let ((?x662 (- (+ ?x657 ?x659) (* l_1_2_1 (+ (* (* 2.0 _a_0_) _a_1_) (* _a_2_ _a_2_))))))
 (let ((?x673 (- (+ (- (- (- ?x662 ?x663) (* l_1_2_11 ?x666)) ?x669) l_1_2_2) (* l_1_2_3 ?x666))))
 (= (+ (+ ?x673 l_1_2_4) l_1_2_7) 0.0))))))))))))
(assert
 (let ((?x771 (* (/ 14.0 5.0) l_1_2_10)))
 (let ((?x772 (+ (- (* (* (* (- 2.0) _a_1_) _a_2_) l_1_2_1) (* (/ 128.0 25.0) _a_1_)) ?x771)))
 (let ((?x778 (- (- ?x772 (* l_1_2_11 (- (* (/ 7.0 5.0) _a_1_) _a_2_))) (* l_1_2_3 (- (* (/ 7.0 5.0) _a_1_) _a_2_)))))
 (= ?x778 0.0)))))
(assert
 (let ((?x656 (* (/ 64.0 25.0) _a_1_)))
 (let ((?x832 (- (+ (+ (* _a_1_ l_1_2_11) (* _a_1_ l_1_2_3)) ?x656) (* (* l_1_2_1 _a_1_) _a_1_))))
 (= (- ?x832 l_1_2_10) 0.0))))
(assert
 (let ((?x867 (* (/ 7.0 5.0) l_1_2_7)))
 (let ((?x865 (* (/ 7.0 5.0) l_1_2_4)))
 (let ((?x861 (* (/ 7.0 5.0) l_1_2_2)))
 (let ((?x852 (* (/ 357.0 250.0) l_1_2_10)))
 (let ((?x659 (* (/ 8.0 5.0) _a_2_)))
 (let ((?x849 (* _a_2_ l_1_2_6)))
 (let ((?x847 (* _a_2_ l_1_2_13)))
 (let ((?x845 (* _a_2_ l_1_2_12)))
 (let ((?x850 (- (- (- (* (* (* (- 2.0) _a_0_) _a_2_) l_1_2_1) ?x845) ?x847) ?x849)))
 (let ((?x857 (- (- (- ?x850 ?x659) ?x852) (* l_1_2_11 (+ (* (/ 7.0 5.0) _a_0_) (* (/ 51.0 100.0) _a_2_))))))
 (let ((?x864 (- (- (- ?x857 (* (* 2.0 l_1_2_15) l_1_2_16)) ?x861) (* l_1_2_3 (+ (* (/ 7.0 5.0) _a_0_) (* (/ 51.0 100.0) _a_2_))))))
 (= (- (- ?x864 ?x865) ?x867) 0.0)))))))))))))
(assert
 (>= l_1_2_1 0.0))
(assert
 (>= l_1_2_2 0.0))
(assert
 (>= l_1_2_3 0.0))
(assert
 (>= l_1_2_4 0.0))
(assert
 (>= l_1_2_5 0.0))
(assert
 (>= l_1_2_6 0.0))
(assert
 (>= l_1_2_7 0.0))
(assert
 (>= l_1_2_8 0.0))
(assert
 (>= l_1_2_9 0.0))
(assert
 (>= l_1_2_10 0.0))
(assert
 (>= l_1_2_11 0.0))
(assert
 (>= l_1_2_12 0.0))
(assert
 (>= l_1_2_13 0.0))
(assert
 (>= l_1_2_14 0.0))
(assert
 (>= l_1_2_15 0.0))
(assert
 (>= l_1_2_17 0.0))
(check-sat)
(get-model)